c ind 10 139 141 196 197 199 200 202 203 205 0
c ind 206 208 209 211 212 214 215 217 218 23 0
c ind 25 27 29 3 31 33 35 37 4 56 0
c ind 6 60 64 67 7 70 73 76 79 82 0
c ind 85 88 91 94 97 0
p cnf 238 681
-1 -2 5 0
-1 2 8 0
-100 101 0
-100 36 0
-101 102 0
-101 34 0
-102 103 0
-102 32 0
-103 104 0
-103 30 0
-104 105 0
-104 28 0
-105 106 0
-105 26 0
-106 107 0
-106 22 0
-107 -25 4 0
-107 -4 25 0
-108 -109 5 0
-108 109 116 0
-109 110 0
-109 36 0
-11 -4 6 0
-11 -6 4 0
-110 111 0
-110 34 0
-111 112 0
-111 32 0
-112 113 0
-112 30 0
-113 114 0
-113 28 0
-114 115 0
-114 26 0
-115 107 0
-115 46 0
-116 -117 124 0
-116 117 142 0
-117 118 0
-117 36 0
-118 119 0
-118 34 0
-119 120 0
-119 32 0
-12 -13 14 0
-12 13 5 0
-120 121 0
-120 30 0
-121 122 0
-121 28 0
-122 123 0
-122 21 0
-123 -27 4 0
-123 -4 27 0
-124 -125 11 0
-124 125 5 0
-125 126 0
-125 140 0
-126 127 0
-126 138 0
-127 128 0
-127 137 0
-128 129 0
-128 136 0
-129 130 0
-129 135 0
-13 -10 4 0
-13 -4 10 0
-130 131 0
-130 134 0
-131 132 0
-131 133 0
-132 -56 67 0
-132 -67 56 0
-133 -60 73 0
-133 -73 60 0
-134 -64 79 0
-134 -79 64 0
-135 -70 85 0
-135 -85 70 0
-136 -76 91 0
-136 -91 76 0
-137 -82 97 0
-137 -97 82 0
-138 -139 88 0
-138 -88 139 0
-14 -15 11 0
-14 15 38 0
-140 -141 94 0
-140 -94 141 0
-142 -143 11 0
-142 143 149 0
-143 144 0
-143 36 0
-144 145 0
-144 34 0
-145 146 0
-145 32 0
-146 147 0
-146 30 0
-147 148 0
-147 28 0
-148 123 0
-148 45 0
-149 -150 11 0
-149 150 156 0
-15 16 0
-15 36 0
-150 151 0
-150 36 0
-151 152 0
-151 34 0
-152 153 0
-152 32 0
-153 154 0
-153 30 0
-154 155 0
-154 28 0
-155 106 0
-155 123 0
-156 -157 11 0
-156 157 163 0
-157 158 0
-157 36 0
-158 159 0
-158 34 0
-159 160 0
-159 32 0
-16 17 0
-16 34 0
-160 161 0
-160 30 0
-161 162 0
-161 28 0
-162 115 0
-162 123 0
-163 -164 11 0
-163 164 170 0
-164 165 0
-164 36 0
-165 166 0
-165 34 0
-166 167 0
-166 32 0
-167 168 0
-167 30 0
-168 169 0
-168 20 0
-169 -29 4 0
-169 -4 29 0
-17 18 0
-17 32 0
-170 -171 11 0
-170 171 176 0
-171 172 0
-171 36 0
-172 173 0
-172 34 0
-173 174 0
-173 32 0
-174 175 0
-174 30 0
-175 169 0
-175 44 0
-176 -177 11 0
-176 177 182 0
-177 178 0
-177 36 0
-178 179 0
-178 34 0
-179 180 0
-179 32 0
-18 19 0
-18 30 0
-180 181 0
-180 19 0
-181 -31 4 0
-181 -4 31 0
-182 -183 187 0
-182 183 219 0
-183 184 0
-183 36 0
-184 185 0
-184 34 0
-185 186 0
-185 32 0
-186 181 0
-186 43 0
-187 -188 11 0
-187 188 5 0
-188 189 0
-188 216 0
-189 190 0
-189 213 0
-19 20 0
-19 28 0
-190 191 0
-190 210 0
-191 192 0
-191 207 0
-192 193 0
-192 204 0
-193 194 0
-193 201 0
-194 195 0
-194 198 0
-195 -196 197 0
-195 -197 196 0
-198 -199 200 0
-198 -200 199 0
-2 -3 4 0
-2 -4 3 0
-20 21 0
-20 26 0
-201 -202 203 0
-201 -203 202 0
-204 -205 206 0
-204 -206 205 0
-207 -208 209 0
-207 -209 208 0
-21 22 0
-21 24 0
-210 -211 212 0
-210 -212 211 0
-213 -214 215 0
-213 -215 214 0
-216 -217 218 0
-216 -218 217 0
-219 -220 5 0
-219 220 224 0
-22 -23 7 0
-22 -7 23 0
-220 221 0
-220 36 0
-221 222 0
-221 34 0
-222 223 0
-222 32 0
-223 104 0
-223 181 0
-224 -225 5 0
-224 225 229 0
-225 226 0
-225 36 0
-226 227 0
-226 34 0
-227 228 0
-227 32 0
-228 113 0
-228 181 0
-229 -230 11 0
-229 230 234 0
-230 231 0
-230 36 0
-231 232 0
-231 34 0
-232 233 0
-232 32 0
-233 121 0
-233 181 0
-234 -235 11 0
-234 235 5 0
-235 236 0
-235 36 0
-236 237 0
-236 34 0
-237 238 0
-237 32 0
-238 147 0
-238 181 0
-24 -25 7 0
-24 -7 25 0
-26 -27 7 0
-26 -7 27 0
-28 -29 7 0
-28 -7 29 0
-30 -31 7 0
-30 -7 31 0
-32 -33 7 0
-32 -7 33 0
-34 -35 7 0
-34 -7 35 0
-36 -37 7 0
-36 -7 37 0
-38 -39 47 0
-38 39 99 0
-39 36 0
-39 40 0
-40 34 0
-40 41 0
-41 32 0
-41 42 0
-42 30 0
-42 43 0
-43 28 0
-43 44 0
-44 26 0
-44 45 0
-45 24 0
-45 46 0
-46 -23 4 0
-46 -4 23 0
-47 -48 11 0
-47 48 5 0
-48 49 0
-48 93 0
-49 50 0
-49 87 0
-5 -6 7 0
-5 -7 6 0
-50 51 0
-50 81 0
-51 52 0
-51 75 0
-52 53 0
-52 69 0
-53 54 0
-53 63 0
-54 55 0
-54 59 0
-55 -56 57 0
-55 -57 56 0
-57 -58 -7 0
-57 58 7 0
-58 -7 -7 0
-58 7 7 0
-59 -60 61 0
-59 -61 60 0
-61 -58 -62 0
-61 58 62 0
-62 7 0
-63 -64 65 0
-63 -65 64 0
-65 -66 -68 0
-65 66 68 0
-66 -7 -67 0
-66 7 67 0
-68 62 0
-68 7 0
-69 -70 71 0
-69 -71 70 0
-7 0
-71 -72 -74 0
-71 72 74 0
-72 -7 -73 0
-72 7 73 0
-74 67 0
-74 68 0
-75 -76 77 0
-75 -77 76 0
-77 -78 -80 0
-77 78 80 0
-78 -7 -79 0
-78 7 79 0
-8 -9 11 0
-8 9 12 0
-80 73 0
-80 74 0
-81 -82 83 0
-81 -83 82 0
-83 -84 -86 0
-83 84 86 0
-84 -7 -85 0
-84 7 85 0
-86 79 0
-86 80 0
-87 -88 89 0
-87 -89 88 0
-89 -90 -92 0
-89 90 92 0
-9 -10 7 0
-9 -7 10 0
-90 -7 -91 0
-90 7 91 0
-92 85 0
-92 86 0
-93 -94 95 0
-93 -95 94 0
-95 -96 -98 0
-95 96 98 0
-96 -7 -97 0
-96 7 97 0
-98 91 0
-98 92 0
-99 -100 11 0
-99 100 108 0
1 -2 -5 0
1 -5 -8 0
1 0
1 2 -8 0
100 -101 -36 0
101 -102 -34 0
102 -103 -32 0
103 -104 -30 0
104 -105 -28 0
105 -106 -26 0
106 -22 -107 0
107 -25 -4 0
107 25 4 0
108 -109 -5 0
108 -5 -116 0
108 109 -116 0
109 -110 -36 0
11 -6 -4 0
11 6 4 0
110 -111 -34 0
111 -112 -32 0
112 -113 -30 0
113 -114 -28 0
114 -115 -26 0
115 -46 -107 0
116 -117 -124 0
116 -124 -142 0
116 117 -142 0
117 -118 -36 0
118 -119 -34 0
119 -120 -32 0
12 -13 -14 0
12 -14 -5 0
12 13 -5 0
120 -121 -30 0
121 -122 -28 0
122 -21 -123 0
123 -27 -4 0
123 27 4 0
124 -11 -5 0
124 -125 -11 0
124 125 -5 0
125 -126 -140 0
126 -127 -138 0
127 -128 -137 0
128 -129 -136 0
129 -130 -135 0
13 -10 -4 0
13 10 4 0
130 -131 -134 0
131 -132 -133 0
132 -56 -67 0
132 56 67 0
133 -60 -73 0
133 60 73 0
134 -64 -79 0
134 64 79 0
135 -70 -85 0
135 70 85 0
136 -76 -91 0
136 76 91 0
137 -82 -97 0
137 82 97 0
138 -88 -139 0
138 88 139 0
14 -11 -38 0
14 -15 -11 0
14 15 -38 0
140 -94 -141 0
140 94 141 0
142 -11 -149 0
142 -143 -11 0
142 143 -149 0
143 -144 -36 0
144 -145 -34 0
145 -146 -32 0
146 -147 -30 0
147 -148 -28 0
148 -45 -123 0
149 -11 -156 0
149 -150 -11 0
149 150 -156 0
15 -16 -36 0
150 -151 -36 0
151 -152 -34 0
152 -153 -32 0
153 -154 -30 0
154 -155 -28 0
155 -106 -123 0
156 -11 -163 0
156 -157 -11 0
156 157 -163 0
157 -158 -36 0
158 -159 -34 0
159 -160 -32 0
16 -17 -34 0
160 -161 -30 0
161 -162 -28 0
162 -115 -123 0
163 -11 -170 0
163 -164 -11 0
163 164 -170 0
164 -165 -36 0
165 -166 -34 0
166 -167 -32 0
167 -168 -30 0
168 -20 -169 0
169 -29 -4 0
169 29 4 0
17 -18 -32 0
170 -11 -176 0
170 -171 -11 0
170 171 -176 0
171 -172 -36 0
172 -173 -34 0
173 -174 -32 0
174 -175 -30 0
175 -44 -169 0
176 -11 -182 0
176 -177 -11 0
176 177 -182 0
177 -178 -36 0
178 -179 -34 0
179 -180 -32 0
18 -19 -30 0
180 -19 -181 0
181 -31 -4 0
181 31 4 0
182 -183 -187 0
182 -187 -219 0
182 183 -219 0
183 -184 -36 0
184 -185 -34 0
185 -186 -32 0
186 -43 -181 0
187 -11 -5 0
187 -188 -11 0
187 188 -5 0
188 -189 -216 0
189 -190 -213 0
19 -20 -28 0
190 -191 -210 0
191 -192 -207 0
192 -193 -204 0
193 -194 -201 0
194 -195 -198 0
195 -196 -197 0
195 196 197 0
198 -199 -200 0
198 199 200 0
2 -3 -4 0
2 3 4 0
20 -21 -26 0
201 -202 -203 0
201 202 203 0
204 -205 -206 0
204 205 206 0
207 -208 -209 0
207 208 209 0
21 -22 -24 0
210 -211 -212 0
210 211 212 0
213 -214 -215 0
213 214 215 0
216 -217 -218 0
216 217 218 0
219 -220 -5 0
219 -5 -224 0
219 220 -224 0
22 -23 -7 0
22 23 7 0
220 -221 -36 0
221 -222 -34 0
222 -223 -32 0
223 -104 -181 0
224 -225 -5 0
224 -5 -229 0
224 225 -229 0
225 -226 -36 0
226 -227 -34 0
227 -228 -32 0
228 -113 -181 0
229 -11 -234 0
229 -230 -11 0
229 230 -234 0
230 -231 -36 0
231 -232 -34 0
232 -233 -32 0
233 -121 -181 0
234 -11 -5 0
234 -235 -11 0
234 235 -5 0
235 -236 -36 0
236 -237 -34 0
237 -238 -32 0
238 -147 -181 0
24 -25 -7 0
24 25 7 0
26 -27 -7 0
26 27 7 0
28 -29 -7 0
28 29 7 0
30 -31 -7 0
30 31 7 0
32 -33 -7 0
32 33 7 0
34 -35 -7 0
34 35 7 0
36 -37 -7 0
36 37 7 0
38 -39 -47 0
38 -47 -99 0
38 39 -99 0
39 -40 -36 0
4 0
40 -41 -34 0
41 -42 -32 0
42 -43 -30 0
43 -44 -28 0
44 -45 -26 0
45 -46 -24 0
46 -23 -4 0
46 23 4 0
47 -11 -5 0
47 -48 -11 0
47 48 -5 0
48 -49 -93 0
49 -50 -87 0
5 -6 -7 0
5 6 7 0
50 -51 -81 0
51 -52 -75 0
52 -53 -69 0
53 -54 -63 0
54 -55 -59 0
55 -56 -57 0
55 56 57 0
57 -58 7 0
57 -7 58 0
58 -7 7 0
59 -60 -61 0
59 60 61 0
61 -58 62 0
61 -62 58 0
62 -7 -7 0
63 -64 -65 0
63 64 65 0
65 -66 68 0
65 -68 66 0
66 -67 7 0
66 -7 67 0
68 -7 -62 0
69 -70 -71 0
69 70 71 0
71 -72 74 0
71 -74 72 0
72 -7 73 0
72 -73 7 0
74 -67 -68 0
75 -76 -77 0
75 76 77 0
77 -78 80 0
77 -80 78 0
78 -7 79 0
78 -79 7 0
8 -11 -12 0
8 -9 -11 0
8 9 -12 0
80 -73 -74 0
81 -82 -83 0
81 82 83 0
83 -84 86 0
83 -86 84 0
84 -7 85 0
84 -85 7 0
86 -79 -80 0
87 -88 -89 0
87 88 89 0
89 -90 92 0
89 -92 90 0
9 -10 -7 0
9 10 7 0
90 -7 91 0
90 -91 7 0
92 -85 -86 0
93 -94 -95 0
93 94 95 0
95 -96 98 0
95 -98 96 0
96 -7 97 0
96 -97 7 0
98 -91 -92 0
99 -100 -11 0
99 -11 -108 0
99 100 -108 0
